(set-info :smt-lib-version 2.6)
(set-logic QF_NIA)
(set-info :source |
Generated by: Cristina Borralleras, Daniel Larraz, Albert Oliveras, Enric Rodriguez-Carbonell, Albert Rubio
Generated on: 2017-04-27
Generator: VeryMax
Application: Termination proving
Target solver: barcelogic
|)
(set-info :license "https://creativecommons.org/licenses/by/4.0/")
(set-info :category "industrial")
(set-info :status sat)
(declare-fun Nl2arg11 () Int)
(declare-fun Nl2arg21 () Int)
(declare-fun lam0n1 () Int)
(declare-fun lam0n0 () Int)
(declare-fun Nl2CT1 () Int)
(declare-fun lam1n1 () Int)
(declare-fun lam1n0 () Int)
(declare-fun lam2n0 () Int)
(declare-fun lam2n1 () Int)
(declare-fun lam2n3 () Int)
(declare-fun lam2n2 () Int)
(declare-fun lam3n0 () Int)
(declare-fun lam3n1 () Int)
(declare-fun lam3n3 () Int)
(declare-fun lam3n2 () Int)
(declare-fun lam4n0 () Int)
(declare-fun lam4n1 () Int)
(declare-fun lam4n3 () Int)
(declare-fun lam4n2 () Int)
(declare-fun lam5n0 () Int)
(declare-fun lam5n1 () Int)
(declare-fun lam5n3 () Int)
(declare-fun lam5n2 () Int)
(declare-fun lam6n0 () Int)
(declare-fun lam6n2 () Int)
(declare-fun lam6n1 () Int)
(declare-fun lam7n0 () Int)
(declare-fun lam7n2 () Int)
(declare-fun lam7n1 () Int)
(declare-fun lam8n0 () Int)
(declare-fun lam8n2 () Int)
(declare-fun lam8n1 () Int)
(declare-fun lam9n0 () Int)
(declare-fun lam9n2 () Int)
(declare-fun lam9n1 () Int)
(declare-fun lam10n1 () Int)
(declare-fun lam10n0 () Int)
(declare-fun lam11n1 () Int)
(declare-fun lam11n0 () Int)
(declare-fun lam12n0 () Int)
(declare-fun lam12n1 () Int)
(declare-fun lam12n2 () Int)
(declare-fun lam12n3 () Int)
(declare-fun lam12n4 () Int)
(declare-fun undef16 () Int)
(declare-fun arg2 () Int)
(declare-fun undef15 () Int)
(declare-fun arg1 () Int)
(declare-fun lam16n1 () Int)
(declare-fun lam16n0 () Int)
(declare-fun RFN1_CT () Int)
(declare-fun RFN1_arg1 () Int)
(declare-fun RFN1_arg2 () Int)
(declare-fun lam20n0 () Int)
(declare-fun lam20n1 () Int)
(declare-fun lam20n3 () Int)
(declare-fun lam20n2 () Int)
(declare-fun lam24n0 () Int)
(declare-fun lam24n1 () Int)
(declare-fun lam24n3 () Int)
(declare-fun lam24n2 () Int)
(declare-fun lam28n0 () Int)
(declare-fun lam28n2 () Int)
(declare-fun lam28n1 () Int)
(declare-fun lam32n0 () Int)
(declare-fun lam32n2 () Int)
(declare-fun lam32n1 () Int)
(declare-fun lam36n1 () Int)
(declare-fun lam36n0 () Int)
(declare-fun lam14n1 () Int)
(declare-fun lam14n0 () Int)
(declare-fun lam15n1 () Int)
(declare-fun lam15n0 () Int)
(declare-fun lam18n0 () Int)
(declare-fun lam18n1 () Int)
(declare-fun lam18n3 () Int)
(declare-fun lam18n2 () Int)
(declare-fun lam19n0 () Int)
(declare-fun lam19n1 () Int)
(declare-fun lam19n3 () Int)
(declare-fun lam19n2 () Int)
(declare-fun lam22n0 () Int)
(declare-fun lam22n1 () Int)
(declare-fun lam22n3 () Int)
(declare-fun lam22n2 () Int)
(declare-fun lam23n0 () Int)
(declare-fun lam23n1 () Int)
(declare-fun lam23n3 () Int)
(declare-fun lam23n2 () Int)
(declare-fun lam26n0 () Int)
(declare-fun lam26n2 () Int)
(declare-fun lam26n1 () Int)
(declare-fun lam27n0 () Int)
(declare-fun lam27n2 () Int)
(declare-fun lam27n1 () Int)
(declare-fun lam30n0 () Int)
(declare-fun lam30n2 () Int)
(declare-fun lam30n1 () Int)
(declare-fun lam31n0 () Int)
(declare-fun lam31n2 () Int)
(declare-fun lam31n1 () Int)
(declare-fun lam34n1 () Int)
(declare-fun lam34n0 () Int)
(declare-fun lam35n1 () Int)
(declare-fun lam35n0 () Int)
(declare-fun lam13n1 () Int)
(declare-fun lam13n0 () Int)
(declare-fun lam17n0 () Int)
(declare-fun lam17n1 () Int)
(declare-fun lam17n3 () Int)
(declare-fun lam17n2 () Int)
(declare-fun lam21n0 () Int)
(declare-fun lam21n1 () Int)
(declare-fun lam21n3 () Int)
(declare-fun lam21n2 () Int)
(declare-fun lam25n0 () Int)
(declare-fun lam25n2 () Int)
(declare-fun lam25n1 () Int)
(declare-fun lam29n0 () Int)
(declare-fun lam29n2 () Int)
(declare-fun lam29n1 () Int)
(declare-fun lam33n1 () Int)
(declare-fun lam33n0 () Int)
(assert ( and ( <= ( - 9 ) Nl2arg11 ) ( <= Nl2arg11 9 ) ( <= ( - 9 ) Nl2arg21 ) ( <= Nl2arg21 9 ) ))
(assert ( or ( and ( >= lam0n1 0 ) ( > ( + ( * ( - 1 ) lam0n0 ) ( * Nl2CT1 lam0n1 ) ( - 1 ) ) 0 ) ( = ( * Nl2arg11 lam0n1 ) 0 ) ( = ( + ( * 1 lam0n0 ) ( * Nl2arg21 lam0n1 ) ) 0 ) ) ( and ( >= lam1n1 0 ) ( > ( + ( * ( - 1 ) lam1n0 ) ( * Nl2CT1 lam1n1 ) ( - 1 ( + ( + Nl2CT1 ( * Nl2arg11 1 ) ) ( * Nl2arg21 2 ) ) ) ) 0 ) ( = ( * Nl2arg11 lam1n1 ) 0 ) ( = ( + ( * 1 lam1n0 ) ( * Nl2arg21 lam1n1 ) ) 0 ) ) ))
(assert ( or ( and ( >= lam2n0 0 ) ( >= lam2n1 0 ) ( >= lam2n3 0 ) ( > ( + ( * 2 lam2n0 ) ( * ( - 9 ) lam2n1 ) ( * ( - 1 ) lam2n2 ) ( * Nl2CT1 lam2n3 ) ( - 1 ) ) 0 ) ( = ( + ( * 1 lam2n2 ) ( * Nl2arg11 lam2n3 ) ) 0 ) ( = ( + ( * ( - 1 ) lam2n0 ) ( * 1 lam2n1 ) ( * Nl2arg21 lam2n3 ) ) 0 ) ) ( and ( >= lam3n0 0 ) ( >= lam3n1 0 ) ( >= lam3n3 0 ) ( > ( + ( * 2 lam3n0 ) ( * ( - 9 ) lam3n1 ) ( * ( - 1 ) lam3n2 ) ( * Nl2CT1 lam3n3 ) ( - 1 ( + ( + Nl2CT1 ( * Nl2arg11 1 ) ) ( * Nl2arg21 1 ) ) ) ) 0 ) ( = ( + ( * 1 lam3n2 ) ( * Nl2arg11 lam3n3 ) ) 0 ) ( = ( + ( * ( - 1 ) lam3n0 ) ( * 1 lam3n1 ) ( * Nl2arg21 lam3n3 ) ( - ( + 0 ( * Nl2arg21 1 ) ) ) ) 0 ) ) ))
(assert ( or ( and ( >= lam4n0 0 ) ( >= lam4n1 0 ) ( >= lam4n3 0 ) ( > ( + ( * 2 lam4n0 ) ( * ( - 9 ) lam4n1 ) ( * Nl2CT1 lam4n3 ) ( - 1 ) ) 0 ) ( = ( + ( * 1 lam4n2 ) ( * Nl2arg11 lam4n3 ) ) 0 ) ( = ( + ( * ( - 1 ) lam4n0 ) ( * 1 lam4n1 ) ( * Nl2arg21 lam4n3 ) ) 0 ) ) ( and ( >= lam5n0 0 ) ( >= lam5n1 0 ) ( >= lam5n3 0 ) ( > ( + ( * 2 lam5n0 ) ( * ( - 9 ) lam5n1 ) ( * Nl2CT1 lam5n3 ) ( - 1 ( + ( + Nl2CT1 ( * Nl2arg11 0 ) ) ( * Nl2arg21 ( - 1 ) ) ) ) ) 0 ) ( = ( + ( * 1 lam5n2 ) ( * Nl2arg11 lam5n3 ) ) 0 ) ( = ( + ( * ( - 1 ) lam5n0 ) ( * 1 lam5n1 ) ( * Nl2arg21 lam5n3 ) ( - ( + 0 ( * Nl2arg21 1 ) ) ) ) 0 ) ) ))
(assert ( or ( and ( >= lam6n0 0 ) ( >= lam6n2 0 ) ( > ( + ( * 11 lam6n0 ) ( * ( - 1 ) lam6n1 ) ( * Nl2CT1 lam6n2 ) ( - 1 ) ) 0 ) ( = ( + ( * 1 lam6n1 ) ( * Nl2arg11 lam6n2 ) ) 0 ) ( = ( + ( * ( - 1 ) lam6n0 ) ( * Nl2arg21 lam6n2 ) ) 0 ) ) ( and ( >= lam7n0 0 ) ( >= lam7n2 0 ) ( > ( + ( * 11 lam7n0 ) ( * ( - 1 ) lam7n1 ) ( * Nl2CT1 lam7n2 ) ( - 1 ( + ( + Nl2CT1 ( * Nl2arg11 1 ) ) ( * Nl2arg21 1 ) ) ) ) 0 ) ( = ( + ( * 1 lam7n1 ) ( * Nl2arg11 lam7n2 ) ) 0 ) ( = ( + ( * ( - 1 ) lam7n0 ) ( * Nl2arg21 lam7n2 ) ( - ( + 0 ( * Nl2arg21 1 ) ) ) ) 0 ) ) ))
(assert ( or ( and ( >= lam8n0 0 ) ( >= lam8n2 0 ) ( > ( + ( * 11 lam8n0 ) ( * Nl2CT1 lam8n2 ) ( - 1 ) ) 0 ) ( = ( + ( * 1 lam8n1 ) ( * Nl2arg11 lam8n2 ) ) 0 ) ( = ( + ( * ( - 1 ) lam8n0 ) ( * Nl2arg21 lam8n2 ) ) 0 ) ) ( and ( >= lam9n0 0 ) ( >= lam9n2 0 ) ( > ( + ( * 11 lam9n0 ) ( * Nl2CT1 lam9n2 ) ( - 1 ( + ( + Nl2CT1 ( * Nl2arg11 0 ) ) ( * Nl2arg21 ( - 1 ) ) ) ) ) 0 ) ( = ( + ( * 1 lam9n1 ) ( * Nl2arg11 lam9n2 ) ) 0 ) ( = ( + ( * ( - 1 ) lam9n0 ) ( * Nl2arg21 lam9n2 ) ( - ( + 0 ( * Nl2arg21 1 ) ) ) ) 0 ) ) ))
(assert ( or ( and ( >= lam10n1 0 ) ( > ( + ( * ( - 10 ) lam10n0 ) ( * Nl2CT1 lam10n1 ) ( - 1 ) ) 0 ) ( = ( * Nl2arg11 lam10n1 ) 0 ) ( = ( + ( * 1 lam10n0 ) ( * Nl2arg21 lam10n1 ) ) 0 ) ) ( and ( >= lam11n1 0 ) ( > ( + ( * ( - 10 ) lam11n0 ) ( * Nl2CT1 lam11n1 ) ( - 1 ( + ( + Nl2CT1 ( * Nl2arg11 0 ) ) ( * Nl2arg21 9 ) ) ) ) 0 ) ( = ( * Nl2arg11 lam11n1 ) 0 ) ( = ( + ( * 1 lam11n0 ) ( * Nl2arg21 lam11n1 ) ) 0 ) ) ))
(assert ( and ( <= ( * ( - 1 ) undef16 ) 0 ) ( not ( <= arg2 0 ) ) ( <= ( + 1 ( * ( - 1 ) undef15 ) ) 0 ) ( = arg1 0 ) ( = ( + arg2 ( * ( - 1 ) undef16 ) ) 0 ) ( <= ( + Nl2CT1 ( * ( + 0 Nl2arg11 ) arg1 ) ( * ( + 0 Nl2arg21 ) arg2 ) ) 0 ) ))
(assert ( or ( and ( and ( and ( >= lam16n1 0 ) ( > ( + ( * ( - 1 ) lam16n0 ) ( * Nl2CT1 lam16n1 ) ( - 1 ( - ( + ( + RFN1_CT ( * RFN1_arg1 1 ) ) ( * RFN1_arg2 2 ) ) RFN1_CT ) ) ) 0 ) ( = ( + ( * Nl2arg11 lam16n1 ) ( - ( - RFN1_arg1 ) ) ) 0 ) ( = ( + ( * 1 lam16n0 ) ( * Nl2arg21 lam16n1 ) ( - ( - RFN1_arg2 ) ) ) 0 ) ) ( and ( >= lam20n0 0 ) ( >= lam20n1 0 ) ( >= lam20n3 0 ) ( > ( + ( * 2 lam20n0 ) ( * ( - 9 ) lam20n1 ) ( * ( - 1 ) lam20n2 ) ( * Nl2CT1 lam20n3 ) ( - 1 ( - ( + ( + RFN1_CT ( * RFN1_arg1 1 ) ) ( * RFN1_arg2 1 ) ) RFN1_CT ) ) ) 0 ) ( = ( + ( * 1 lam20n2 ) ( * Nl2arg11 lam20n3 ) ( - ( - RFN1_arg1 ) ) ) 0 ) ( = ( + ( * ( - 1 ) lam20n0 ) ( * 1 lam20n1 ) ( * Nl2arg21 lam20n3 ) ( - ( - ( + 0 ( * RFN1_arg2 1 ) ) RFN1_arg2 ) ) ) 0 ) ) ( and ( >= lam24n0 0 ) ( >= lam24n1 0 ) ( >= lam24n3 0 ) ( > ( + ( * 2 lam24n0 ) ( * ( - 9 ) lam24n1 ) ( * Nl2CT1 lam24n3 ) ( - 1 ( - ( + ( + RFN1_CT ( * RFN1_arg1 0 ) ) ( * RFN1_arg2 ( - 1 ) ) ) RFN1_CT ) ) ) 0 ) ( = ( + ( * 1 lam24n2 ) ( * Nl2arg11 lam24n3 ) ( - ( - RFN1_arg1 ) ) ) 0 ) ( = ( + ( * ( - 1 ) lam24n0 ) ( * 1 lam24n1 ) ( * Nl2arg21 lam24n3 ) ( - ( - ( + 0 ( * RFN1_arg2 1 ) ) RFN1_arg2 ) ) ) 0 ) ) ( and ( >= lam28n0 0 ) ( >= lam28n2 0 ) ( > ( + ( * 11 lam28n0 ) ( * ( - 1 ) lam28n1 ) ( * Nl2CT1 lam28n2 ) ( - 1 ( - ( + ( + RFN1_CT ( * RFN1_arg1 1 ) ) ( * RFN1_arg2 1 ) ) RFN1_CT ) ) ) 0 ) ( = ( + ( * 1 lam28n1 ) ( * Nl2arg11 lam28n2 ) ( - ( - RFN1_arg1 ) ) ) 0 ) ( = ( + ( * ( - 1 ) lam28n0 ) ( * Nl2arg21 lam28n2 ) ( - ( - ( + 0 ( * RFN1_arg2 1 ) ) RFN1_arg2 ) ) ) 0 ) ) ( and ( >= lam32n0 0 ) ( >= lam32n2 0 ) ( > ( + ( * 11 lam32n0 ) ( * Nl2CT1 lam32n2 ) ( - 1 ( - ( + ( + RFN1_CT ( * RFN1_arg1 0 ) ) ( * RFN1_arg2 ( - 1 ) ) ) RFN1_CT ) ) ) 0 ) ( = ( + ( * 1 lam32n1 ) ( * Nl2arg11 lam32n2 ) ( - ( - RFN1_arg1 ) ) ) 0 ) ( = ( + ( * ( - 1 ) lam32n0 ) ( * Nl2arg21 lam32n2 ) ( - ( - ( + 0 ( * RFN1_arg2 1 ) ) RFN1_arg2 ) ) ) 0 ) ) ( and ( >= lam36n1 0 ) ( > ( + ( * ( - 10 ) lam36n0 ) ( * Nl2CT1 lam36n1 ) ( - 1 ( - ( + ( + RFN1_CT ( * RFN1_arg1 0 ) ) ( * RFN1_arg2 9 ) ) RFN1_CT ) ) ) 0 ) ( = ( + ( * Nl2arg11 lam36n1 ) ( - ( - RFN1_arg1 ) ) ) 0 ) ( = ( + ( * 1 lam36n0 ) ( * Nl2arg21 lam36n1 ) ( - ( - RFN1_arg2 ) ) ) 0 ) ) ) ( or ( and ( and ( >= lam14n1 0 ) ( > ( + ( * ( - 1 ) lam14n0 ) ( * Nl2CT1 lam14n1 ) ( - 1 ( - RFN1_CT ) ) ) 0 ) ( = ( + ( * Nl2arg11 lam14n1 ) ( - ( - RFN1_arg1 ) ) ) 0 ) ( = ( + ( * 1 lam14n0 ) ( * Nl2arg21 lam14n1 ) ( - ( - RFN1_arg2 ) ) ) 0 ) ) ( and ( >= lam15n1 0 ) ( > ( + ( * ( - 1 ) lam15n0 ) ( * Nl2CT1 lam15n1 ) ( - 1 ( + ( - ( + ( + RFN1_CT ( * RFN1_arg1 1 ) ) ( * RFN1_arg2 2 ) ) RFN1_CT ) 1 ) ) ) 0 ) ( = ( + ( * Nl2arg11 lam15n1 ) ( - ( - RFN1_arg1 ) ) ) 0 ) ( = ( + ( * 1 lam15n0 ) ( * Nl2arg21 lam15n1 ) ( - ( - RFN1_arg2 ) ) ) 0 ) ) ) ( and ( and ( >= lam18n0 0 ) ( >= lam18n1 0 ) ( >= lam18n3 0 ) ( > ( + ( * 2 lam18n0 ) ( * ( - 9 ) lam18n1 ) ( * ( - 1 ) lam18n2 ) ( * Nl2CT1 lam18n3 ) ( - 1 ( - RFN1_CT ) ) ) 0 ) ( = ( + ( * 1 lam18n2 ) ( * Nl2arg11 lam18n3 ) ( - ( - RFN1_arg1 ) ) ) 0 ) ( = ( + ( * ( - 1 ) lam18n0 ) ( * 1 lam18n1 ) ( * Nl2arg21 lam18n3 ) ( - ( - RFN1_arg2 ) ) ) 0 ) ) ( and ( >= lam19n0 0 ) ( >= lam19n1 0 ) ( >= lam19n3 0 ) ( > ( + ( * 2 lam19n0 ) ( * ( - 9 ) lam19n1 ) ( * ( - 1 ) lam19n2 ) ( * Nl2CT1 lam19n3 ) ( - 1 ( + ( - ( + ( + RFN1_CT ( * RFN1_arg1 1 ) ) ( * RFN1_arg2 1 ) ) RFN1_CT ) 1 ) ) ) 0 ) ( = ( + ( * 1 lam19n2 ) ( * Nl2arg11 lam19n3 ) ( - ( - RFN1_arg1 ) ) ) 0 ) ( = ( + ( * ( - 1 ) lam19n0 ) ( * 1 lam19n1 ) ( * Nl2arg21 lam19n3 ) ( - ( - ( + 0 ( * RFN1_arg2 1 ) ) RFN1_arg2 ) ) ) 0 ) ) ) ( and ( and ( >= lam22n0 0 ) ( >= lam22n1 0 ) ( >= lam22n3 0 ) ( > ( + ( * 2 lam22n0 ) ( * ( - 9 ) lam22n1 ) ( * Nl2CT1 lam22n3 ) ( - 1 ( - RFN1_CT ) ) ) 0 ) ( = ( + ( * 1 lam22n2 ) ( * Nl2arg11 lam22n3 ) ( - ( - RFN1_arg1 ) ) ) 0 ) ( = ( + ( * ( - 1 ) lam22n0 ) ( * 1 lam22n1 ) ( * Nl2arg21 lam22n3 ) ( - ( - RFN1_arg2 ) ) ) 0 ) ) ( and ( >= lam23n0 0 ) ( >= lam23n1 0 ) ( >= lam23n3 0 ) ( > ( + ( * 2 lam23n0 ) ( * ( - 9 ) lam23n1 ) ( * Nl2CT1 lam23n3 ) ( - 1 ( + ( - ( + ( + RFN1_CT ( * RFN1_arg1 0 ) ) ( * RFN1_arg2 ( - 1 ) ) ) RFN1_CT ) 1 ) ) ) 0 ) ( = ( + ( * 1 lam23n2 ) ( * Nl2arg11 lam23n3 ) ( - ( - RFN1_arg1 ) ) ) 0 ) ( = ( + ( * ( - 1 ) lam23n0 ) ( * 1 lam23n1 ) ( * Nl2arg21 lam23n3 ) ( - ( - ( + 0 ( * RFN1_arg2 1 ) ) RFN1_arg2 ) ) ) 0 ) ) ) ( and ( and ( >= lam26n0 0 ) ( >= lam26n2 0 ) ( > ( + ( * 11 lam26n0 ) ( * ( - 1 ) lam26n1 ) ( * Nl2CT1 lam26n2 ) ( - 1 ( - RFN1_CT ) ) ) 0 ) ( = ( + ( * 1 lam26n1 ) ( * Nl2arg11 lam26n2 ) ( - ( - RFN1_arg1 ) ) ) 0 ) ( = ( + ( * ( - 1 ) lam26n0 ) ( * Nl2arg21 lam26n2 ) ( - ( - RFN1_arg2 ) ) ) 0 ) ) ( and ( >= lam27n0 0 ) ( >= lam27n2 0 ) ( > ( + ( * 11 lam27n0 ) ( * ( - 1 ) lam27n1 ) ( * Nl2CT1 lam27n2 ) ( - 1 ( + ( - ( + ( + RFN1_CT ( * RFN1_arg1 1 ) ) ( * RFN1_arg2 1 ) ) RFN1_CT ) 1 ) ) ) 0 ) ( = ( + ( * 1 lam27n1 ) ( * Nl2arg11 lam27n2 ) ( - ( - RFN1_arg1 ) ) ) 0 ) ( = ( + ( * ( - 1 ) lam27n0 ) ( * Nl2arg21 lam27n2 ) ( - ( - ( + 0 ( * RFN1_arg2 1 ) ) RFN1_arg2 ) ) ) 0 ) ) ) ( and ( and ( >= lam30n0 0 ) ( >= lam30n2 0 ) ( > ( + ( * 11 lam30n0 ) ( * Nl2CT1 lam30n2 ) ( - 1 ( - RFN1_CT ) ) ) 0 ) ( = ( + ( * 1 lam30n1 ) ( * Nl2arg11 lam30n2 ) ( - ( - RFN1_arg1 ) ) ) 0 ) ( = ( + ( * ( - 1 ) lam30n0 ) ( * Nl2arg21 lam30n2 ) ( - ( - RFN1_arg2 ) ) ) 0 ) ) ( and ( >= lam31n0 0 ) ( >= lam31n2 0 ) ( > ( + ( * 11 lam31n0 ) ( * Nl2CT1 lam31n2 ) ( - 1 ( + ( - ( + ( + RFN1_CT ( * RFN1_arg1 0 ) ) ( * RFN1_arg2 ( - 1 ) ) ) RFN1_CT ) 1 ) ) ) 0 ) ( = ( + ( * 1 lam31n1 ) ( * Nl2arg11 lam31n2 ) ( - ( - RFN1_arg1 ) ) ) 0 ) ( = ( + ( * ( - 1 ) lam31n0 ) ( * Nl2arg21 lam31n2 ) ( - ( - ( + 0 ( * RFN1_arg2 1 ) ) RFN1_arg2 ) ) ) 0 ) ) ) ( and ( and ( >= lam34n1 0 ) ( > ( + ( * ( - 10 ) lam34n0 ) ( * Nl2CT1 lam34n1 ) ( - 1 ( - RFN1_CT ) ) ) 0 ) ( = ( + ( * Nl2arg11 lam34n1 ) ( - ( - RFN1_arg1 ) ) ) 0 ) ( = ( + ( * 1 lam34n0 ) ( * Nl2arg21 lam34n1 ) ( - ( - RFN1_arg2 ) ) ) 0 ) ) ( and ( >= lam35n1 0 ) ( > ( + ( * ( - 10 ) lam35n0 ) ( * Nl2CT1 lam35n1 ) ( - 1 ( + ( - ( + ( + RFN1_CT ( * RFN1_arg1 0 ) ) ( * RFN1_arg2 9 ) ) RFN1_CT ) 1 ) ) ) 0 ) ( = ( + ( * Nl2arg11 lam35n1 ) ( - ( - RFN1_arg1 ) ) ) 0 ) ( = ( + ( * 1 lam35n0 ) ( * Nl2arg21 lam35n1 ) ( - ( - RFN1_arg2 ) ) ) 0 ) ) ) ) ) ( or ( and ( >= lam13n1 0 ) ( > ( + ( * ( - 1 ) lam13n0 ) ( * Nl2CT1 lam13n1 ) ( - 1 ) ) 0 ) ( = ( * Nl2arg11 lam13n1 ) 0 ) ( = ( + ( * 1 lam13n0 ) ( * Nl2arg21 lam13n1 ) ) 0 ) ) ( and ( >= lam17n0 0 ) ( >= lam17n1 0 ) ( >= lam17n3 0 ) ( > ( + ( * 2 lam17n0 ) ( * ( - 9 ) lam17n1 ) ( * ( - 1 ) lam17n2 ) ( * Nl2CT1 lam17n3 ) ( - 1 ) ) 0 ) ( = ( + ( * 1 lam17n2 ) ( * Nl2arg11 lam17n3 ) ) 0 ) ( = ( + ( * ( - 1 ) lam17n0 ) ( * 1 lam17n1 ) ( * Nl2arg21 lam17n3 ) ) 0 ) ) ( and ( >= lam21n0 0 ) ( >= lam21n1 0 ) ( >= lam21n3 0 ) ( > ( + ( * 2 lam21n0 ) ( * ( - 9 ) lam21n1 ) ( * Nl2CT1 lam21n3 ) ( - 1 ) ) 0 ) ( = ( + ( * 1 lam21n2 ) ( * Nl2arg11 lam21n3 ) ) 0 ) ( = ( + ( * ( - 1 ) lam21n0 ) ( * 1 lam21n1 ) ( * Nl2arg21 lam21n3 ) ) 0 ) ) ( and ( >= lam25n0 0 ) ( >= lam25n2 0 ) ( > ( + ( * 11 lam25n0 ) ( * ( - 1 ) lam25n1 ) ( * Nl2CT1 lam25n2 ) ( - 1 ) ) 0 ) ( = ( + ( * 1 lam25n1 ) ( * Nl2arg11 lam25n2 ) ) 0 ) ( = ( + ( * ( - 1 ) lam25n0 ) ( * Nl2arg21 lam25n2 ) ) 0 ) ) ( and ( >= lam29n0 0 ) ( >= lam29n2 0 ) ( > ( + ( * 11 lam29n0 ) ( * Nl2CT1 lam29n2 ) ( - 1 ) ) 0 ) ( = ( + ( * 1 lam29n1 ) ( * Nl2arg11 lam29n2 ) ) 0 ) ( = ( + ( * ( - 1 ) lam29n0 ) ( * Nl2arg21 lam29n2 ) ) 0 ) ) ( and ( >= lam33n1 0 ) ( > ( + ( * ( - 10 ) lam33n0 ) ( * Nl2CT1 lam33n1 ) ( - 1 ) ) 0 ) ( = ( * Nl2arg11 lam33n1 ) 0 ) ( = ( + ( * 1 lam33n0 ) ( * Nl2arg21 lam33n1 ) ) 0 ) ) ) ))
(check-sat)
(exit)
